424 5
10 10 10 10 10 

0 0 0 0 0 0 5 2 14 26 38 50 
0 0 0 0 0 0 5 3 4 6 11 12 
1 1 0 0 0 0 2 8 5 
3 2 0 0 0 0 2 10 7 
6 3 0 0 0 0 2 10 9 
5 3 0 0 0 0 1 7 
2 2 0 0 0 0 1 9 
7 1 0 0 0 0 1 9 
6 3 0 0 0 0 1 13 
6 2 0 0 0 0 1 13 
3 5 0 0 0 0 1 13 
6 3 0 0 0 0 1 13 
0 0 0 0 0 0 1 62 
0 0 0 0 0 0 2 15 16 
1 0 0 0 0 1 4 24 19 18 17 
5 0 0 0 0 1 3 21 19 17 
2 0 0 0 0 2 3 23 22 20 
2 0 0 0 0 3 2 21 20 
7 0 0 0 0 3 1 20 
6 0 0 0 0 5 1 25 
6 0 0 0 0 3 1 25 
5 0 0 0 0 3 1 25 
8 0 0 0 0 2 1 25 
1 0 0 0 0 2 1 25 
0 0 0 0 0 0 1 62 
0 0 0 0 0 0 3 27 28 30 
7 0 1 0 0 0 4 36 34 31 29 
7 0 3 0 0 0 3 35 33 32 
8 0 3 0 0 0 2 33 32 
4 0 1 0 0 0 2 34 32 
3 0 2 0 0 0 1 32 
3 0 4 0 0 0 1 37 
6 0 3 0 0 0 1 37 
10 0 3 0 0 0 1 37 
3 0 2 0 0 0 1 37 
2 0 3 0 0 0 1 37 
0 0 0 0 0 0 1 62 
0 0 0 0 0 0 5 39 40 42 43 44 
7 0 0 0 0 1 3 47 45 41 
4 0 0 0 0 4 2 45 41 
2 0 0 0 0 4 1 46 
8 0 0 0 0 3 1 48 
6 0 0 0 0 2 1 47 
10 0 0 0 0 3 1 45 
7 0 0 0 0 1 1 49 
5 0 0 0 0 3 1 49 
6 0 0 0 0 1 1 49 
6 0 0 0 0 3 1 49 
0 0 0 0 0 0 1 62 
0 0 0 0 0 0 5 51 52 53 55 56 
4 0 0 1 0 0 3 59 58 54 
8 0 0 2 0 0 3 59 58 57 
7 0 0 4 0 0 3 59 58 57 
7 0 0 4 0 0 1 60 
1 0 0 2 0 0 1 60 
9 0 0 2 0 0 1 57 
4 0 0 4 0 0 1 61 
4 0 0 1 0 0 1 61 
1 0 0 1 0 0 1 61 
3 0 0 4 0 0 1 61 
0 0 0 0 0 0 1 62 
0 0 0 0 0 0 5 63 75 87 99 111 
0 0 0 0 0 0 3 64 65 66 
4 0 0 0 0 1 3 73 68 67 
10 0 0 0 0 3 3 72 70 69 
4 0 0 0 0 4 2 71 69 
9 0 0 0 0 4 1 70 
2 0 0 0 0 2 1 69 
1 0 0 0 0 1 1 74 
8 0 0 0 0 2 1 74 
5 0 0 0 0 1 1 74 
1 0 0 0 0 6 1 74 
2 0 0 0 0 1 1 74 
0 0 0 0 0 0 1 123 
0 0 0 0 0 0 5 76 77 78 80 83 
6 1 0 0 0 0 3 82 81 79 
5 2 0 0 0 0 2 85 81 
1 3 0 0 0 0 2 85 81 
5 3 0 0 0 0 2 85 84 
1 2 0 0 0 0 2 85 84 
2 1 0 0 0 0 1 84 
7 4 0 0 0 0 1 84 
5 2 0 0 0 0 1 85 
10 6 0 0 0 0 1 86 
9 1 0 0 0 0 1 86 
0 0 0 0 0 0 1 123 
0 0 0 0 0 0 7 88 90 91 92 93 96 97 
5 0 1 0 0 0 1 89 
1 0 3 0 0 0 1 94 
1 0 4 0 0 0 1 95 
7 0 2 0 0 0 1 94 
6 0 2 0 0 0 1 94 
4 0 1 0 0 0 1 94 
8 0 1 0 0 0 1 98 
9 0 6 0 0 0 1 98 
5 0 3 0 0 0 1 98 
1 0 2 0 0 0 1 98 
0 0 0 0 0 0 1 123 
0 0 0 0 0 0 3 100 101 104 
4 1 0 0 0 0 3 105 103 102 
6 4 0 0 0 0 3 109 105 103 
8 1 0 0 0 0 4 109 108 107 106 
7 3 0 0 0 0 3 108 107 106 
4 3 0 0 0 0 3 109 108 106 
3 3 0 0 0 0 2 107 106 
2 4 0 0 0 0 1 110 
1 3 0 0 0 0 1 110 
4 2 0 0 0 0 1 110 
7 1 0 0 0 0 1 110 
0 0 0 0 0 0 1 123 
0 0 0 0 0 0 6 112 113 115 117 120 121 
1 1 0 0 0 0 2 119 116 
3 1 0 0 0 0 1 114 
1 4 0 0 0 0 2 119 118 
2 4 0 0 0 0 1 116 
9 1 0 0 0 0 1 118 
2 3 0 0 0 0 1 118 
3 3 0 0 0 0 1 122 
1 2 0 0 0 0 1 122 
1 2 0 0 0 0 1 122 
1 4 0 0 0 0 1 122 
0 0 0 0 0 0 1 123 
0 0 0 0 0 0 5 124 156 188 200 232 
0 0 0 0 0 0 6 125 126 127 128 129 134 
7 1 1 1 0 0 5 142 141 132 131 130 
7 2 2 2 0 0 5 141 139 138 132 130 
1 1 2 2 0 0 4 142 138 132 130 
8 4 2 2 0 0 4 143 142 131 130 
4 2 2 1 0 0 3 143 142 131 
3 2 2 2 0 0 3 137 136 135 
10 1 4 2 0 0 3 139 138 137 
8 1 1 4 0 0 1 133 
10 4 3 3 0 0 3 144 143 140 
6 2 3 2 0 0 2 144 137 
5 3 5 6 0 0 2 144 140 
10 1 4 1 0 0 2 144 140 
5 4 2 2 0 0 1 140 
10 3 1 1 0 0 1 140 
4 3 2 1 0 0 1 140 
4 4 2 4 0 0 5 154 153 150 146 145 
5 2 2 4 0 0 3 153 146 145 
9 3 1 3 0 0 3 150 148 144 
3 3 3 1 0 0 2 153 145 
2 2 7 2 0 0 4 154 153 152 151 
6 3 2 5 0 0 2 152 147 
1 1 2 4 0 0 2 152 149 
8 3 2 4 0 0 1 148 
10 3 2 1 0 0 1 151 
9 2 4 3 0 0 1 151 
3 2 1 4 0 0 1 152 
1 4 3 1 0 0 1 155 
1 3 2 2 0 0 1 155 
3 5 2 4 0 0 1 155 
7 1 4 1 0 0 1 155 
0 0 0 0 0 0 1 424 
0 0 0 0 0 0 6 157 158 159 160 161 171 
9 1 0 1 1 0 5 176 173 164 163 162 
5 1 0 2 2 0 5 173 170 169 164 162 
6 3 0 2 3 0 3 169 164 162 
5 1 0 1 3 0 3 174 163 162 
3 2 0 1 2 0 3 176 174 163 
7 3 0 1 3 0 3 168 166 165 
9 2 0 1 2 0 3 170 169 168 
1 3 0 4 4 0 2 174 167 
1 4 0 2 4 0 2 177 172 
7 2 0 1 4 0 2 177 172 
8 3 0 3 2 0 2 177 172 
1 3 0 2 2 0 1 172 
10 1 0 2 2 0 1 172 
3 2 0 2 5 0 1 172 
6 5 0 3 2 0 1 172 
7 2 0 2 2 0 5 186 185 182 178 175 
1 1 0 1 3 0 3 185 180 178 
8 3 0 3 3 0 2 185 175 
4 3 0 3 2 0 2 183 179 
8 1 0 5 1 0 1 177 
2 3 0 2 4 0 3 186 185 183 
2 3 0 4 2 0 2 183 181 
2 3 0 3 1 0 1 180 
1 2 0 4 3 0 1 184 
2 4 0 5 4 0 1 184 
1 5 0 4 3 0 1 183 
5 4 0 3 1 0 1 187 
5 2 0 3 2 0 1 187 
8 1 0 3 2 0 1 187 
9 2 0 2 1 0 1 187 
0 0 0 0 0 0 1 424 
0 0 0 0 0 0 6 189 190 191 192 193 195 
2 0 0 0 1 0 2 196 194 
7 0 0 0 3 0 2 196 194 
1 0 0 0 1 0 2 196 194 
5 0 0 0 2 0 2 196 194 
7 0 0 0 1 0 2 198 196 
3 0 0 0 6 0 2 198 197 
8 0 0 0 1 0 2 198 197 
1 0 0 0 3 0 1 197 
2 0 0 0 3 0 1 199 
7 0 0 0 4 0 1 199 
0 0 0 0 0 0 5 264 286 308 330 352 
0 0 0 0 0 0 6 201 202 203 204 207 230 
8 0 0 1 1 1 5 213 212 211 208 205 
6 0 0 2 2 1 4 229 211 208 205 
9 0 0 4 3 3 3 208 206 205 
8 0 0 2 3 6 3 214 211 205 
5 0 0 4 2 1 3 221 217 209 
1 0 0 3 4 4 4 226 213 212 210 
6 0 0 1 2 3 4 228 213 212 210 
9 0 0 4 2 2 2 221 210 
5 0 0 1 1 1 1 210 
4 0 0 1 2 2 5 227 225 224 220 216 
7 0 0 2 2 2 3 223 221 215 
7 0 0 5 1 2 4 225 224 223 216 
1 0 0 3 5 1 3 225 220 216 
4 0 0 1 2 2 3 224 223 219 
7 0 0 1 2 3 1 216 
2 0 0 4 3 4 1 218 
10 0 0 4 5 3 2 226 223 
10 0 0 2 4 2 1 219 
9 0 0 2 3 2 1 222 
9 0 0 2 3 2 1 223 
10 0 0 4 1 4 1 226 
6 0 0 2 3 2 1 231 
6 0 0 1 2 4 1 231 
10 0 0 2 2 4 1 231 
5 0 0 3 3 4 1 231 
9 0 0 4 1 2 1 231 
6 0 0 2 2 1 1 231 
5 0 0 2 3 2 1 231 
3 0 0 4 4 3 1 231 
3 0 0 2 2 2 1 231 
0 0 0 0 0 0 1 424 
0 0 0 0 0 0 6 233 234 235 236 239 262 
1 1 1 0 1 0 5 246 244 243 240 237 
10 1 1 0 3 0 4 261 243 240 237 
6 6 1 0 2 0 3 240 238 237 
10 3 4 0 4 0 3 245 243 237 
4 5 2 0 1 0 3 253 249 241 
8 1 5 0 4 0 4 259 246 244 242 
8 3 6 0 6 0 4 260 246 244 242 
8 2 4 0 2 0 2 253 242 
8 4 2 0 3 0 1 242 
9 3 3 0 1 0 5 258 257 256 252 248 
10 4 1 0 3 0 3 255 253 247 
4 2 4 0 3 0 4 257 256 255 248 
5 3 2 0 2 0 4 258 257 252 250 
3 2 1 0 3 0 3 256 252 248 
3 2 3 0 4 0 1 248 
1 1 2 0 1 0 1 250 
10 2 4 0 1 0 2 259 255 
10 2 2 0 2 0 1 251 
6 3 2 0 1 0 1 254 
3 1 2 0 5 0 1 255 
4 3 2 0 2 0 1 259 
9 2 3 0 3 0 1 263 
3 2 1 0 1 0 1 263 
9 1 3 0 2 0 1 263 
6 1 2 0 2 0 1 263 
10 1 2 0 3 0 1 263 
1 3 4 0 3 0 1 263 
9 5 2 0 2 0 1 263 
8 2 2 0 2 0 1 263 
3 4 2 0 3 0 1 263 
0 0 0 0 0 0 1 424 
0 0 0 0 0 0 7 265 268 271 272 282 283 284 
9 1 0 0 1 0 4 281 280 277 266 
5 1 0 0 1 0 2 279 267 
6 1 0 0 2 0 3 278 273 269 
4 4 0 0 1 0 2 276 270 
9 2 0 0 4 0 2 275 274 
10 3 0 0 4 0 2 277 273 
6 4 0 0 1 0 2 276 273 
6 3 0 0 2 0 1 276 
3 4 0 0 2 0 1 285 
4 3 0 0 2 0 1 285 
3 1 0 0 3 0 1 285 
7 1 0 0 2 0 1 285 
1 4 0 0 4 0 1 285 
10 2 0 0 3 0 1 285 
6 1 0 0 4 0 1 285 
10 3 0 0 4 0 1 285 
6 2 0 0 2 0 1 285 
2 5 0 0 2 0 1 285 
3 3 0 0 3 0 1 285 
7 2 0 0 3 0 1 285 
0 0 0 0 0 0 1 424 
0 0 0 0 0 0 8 287 288 289 291 292 293 295 297 
9 0 1 0 1 0 3 305 298 290 
1 0 2 0 4 0 5 305 304 300 298 294 
2 0 5 0 2 0 6 306 305 304 303 302 298 
7 0 2 0 2 0 4 306 304 296 294 
4 0 3 0 2 0 5 306 304 303 302 299 
9 0 3 0 2 0 4 304 303 302 298 
8 0 2 0 2 0 3 305 299 294 
4 0 1 0 3 0 3 303 302 301 
2 0 2 0 1 0 3 304 302 301 
8 0 4 0 2 0 2 302 299 
10 0 2 0 1 0 2 303 301 
7 0 2 0 4 0 1 299 
1 0 2 0 3 0 1 301 
4 0 2 0 2 0 1 301 
4 0 7 0 3 0 1 307 
7 0 3 0 2 0 1 307 
8 0 1 0 5 0 1 307 
3 0 2 0 2 0 1 307 
10 0 1 0 3 0 1 307 
2 0 3 0 4 0 1 307 
0 0 0 0 0 0 1 424 
0 0 0 0 0 0 13 309 310 311 314 316 321 322 323 324 325 326 327 328 
10 0 0 1 1 0 2 320 313 
6 0 0 4 1 0 1 312 
4 0 0 1 4 0 3 319 318 317 
5 0 0 2 3 0 1 313 
1 0 0 5 1 0 1 315 
1 0 0 2 2 0 1 315 
4 0 0 3 1 0 1 317 
2 0 0 3 4 0 1 317 
2 0 0 2 2 0 1 329 
7 0 0 2 2 0 1 329 
1 0 0 3 3 0 1 329 
7 0 0 1 2 0 1 329 
1 0 0 3 2 0 1 329 
9 0 0 2 4 0 1 329 
2 0 0 2 2 0 1 329 
2 0 0 2 3 0 1 329 
3 0 0 3 3 0 1 329 
10 0 0 2 1 0 1 329 
5 0 0 6 3 0 1 329 
8 0 0 1 6 0 1 329 
0 0 0 0 0 0 1 424 
0 0 0 0 0 0 9 331 332 333 334 335 336 338 341 342 
3 0 0 1 0 1 5 350 349 344 340 337 
10 0 0 2 0 4 4 350 349 347 339 
8 0 0 2 0 3 4 349 348 344 340 
5 0 0 4 0 2 3 349 340 337 
2 0 0 6 0 1 3 344 340 337 
5 0 0 3 0 1 3 349 344 340 
8 0 0 2 0 2 4 348 347 346 343 
9 0 0 2 0 2 4 348 346 345 344 
4 0 0 2 0 2 2 348 340 
10 0 0 2 0 3 2 346 343 
6 0 0 2 0 3 2 346 343 
10 0 0 2 0 3 2 346 343 
2 0 0 5 0 1 1 345 
8 0 0 3 0 2 1 347 
10 0 0 1 0 4 1 351 
8 0 0 2 0 2 1 351 
7 0 0 3 0 3 1 351 
6 0 0 3 0 4 1 351 
10 0 0 1 0 1 1 351 
2 0 0 2 0 6 1 351 
0 0 0 0 0 0 1 424 
0 0 0 0 0 0 3 353 354 355 
2 0 0 1 0 0 5 360 359 358 357 356 
5 0 0 3 0 0 4 360 359 357 356 
3 0 0 3 0 0 4 360 358 357 356 
5 0 0 1 0 0 2 362 361 
6 0 0 1 0 0 2 362 361 
10 0 0 7 0 0 2 362 361 
1 0 0 2 0 0 2 362 361 
9 0 0 4 0 0 1 361 
6 0 0 1 0 0 1 363 
5 0 0 2 0 0 1 363 
0 0 0 0 0 0 5 364 376 388 400 412 
0 0 0 0 0 0 4 365 366 367 369 
7 0 1 0 0 0 3 371 370 368 
2 0 2 0 0 0 3 374 373 370 
1 0 3 0 0 0 3 373 371 370 
8 0 4 0 0 0 3 374 373 372 
10 0 1 0 0 0 2 373 370 
9 0 4 0 0 0 1 372 
2 0 2 0 0 0 1 372 
2 0 4 0 0 0 1 375 
1 0 2 0 0 0 1 375 
3 0 2 0 0 0 1 375 
0 0 0 0 0 0 1 424 
0 0 0 0 0 0 3 377 378 379 
5 1 0 0 0 0 6 386 385 384 383 382 380 
5 2 0 0 0 0 4 386 385 382 381 
8 3 0 0 0 0 4 384 383 382 381 
1 3 0 0 0 0 1 381 
1 2 0 0 0 0 1 387 
3 5 0 0 0 0 1 387 
7 2 0 0 0 0 1 387 
7 1 0 0 0 0 1 387 
10 3 0 0 0 0 1 387 
2 3 0 0 0 0 1 387 
0 0 0 0 0 0 1 424 
0 0 0 0 0 0 6 389 390 391 394 397 398 
8 0 1 0 0 0 2 396 393 
7 0 4 0 0 0 2 396 395 
5 0 2 0 0 0 1 392 
7 0 4 0 0 0 1 395 
1 0 3 0 0 0 1 395 
10 0 3 0 0 0 1 395 
10 0 1 0 0 0 1 399 
6 0 2 0 0 0 1 399 
10 0 2 0 0 0 1 399 
8 0 3 0 0 0 1 399 
0 0 0 0 0 0 1 424 
0 0 0 0 0 0 5 401 402 403 404 407 
6 0 0 0 1 0 3 410 408 405 
8 0 0 0 2 0 2 406 405 
8 0 0 0 2 0 2 410 408 
6 0 0 0 3 0 2 409 408 
3 0 0 0 3 0 1 409 
6 0 0 0 3 0 1 408 
5 0 0 0 4 0 1 408 
5 0 0 0 1 0 1 411 
2 0 0 0 5 0 1 411 
7 0 0 0 1 0 1 411 
0 0 0 0 0 0 1 424 
0 0 0 0 0 0 5 413 414 415 418 419 
9 0 0 1 0 0 2 417 416 
3 0 0 3 0 0 2 417 416 
5 0 0 2 0 0 2 422 417 
7 0 0 3 0 0 2 422 421 
7 0 0 3 0 0 1 420 
9 0 0 2 0 0 1 421 
4 0 0 2 0 0 1 420 
7 0 0 4 0 0 1 423 
6 0 0 2 0 0 1 423 
7 0 0 3 0 0 1 423 
0 0 0 0 0 0 1 424 
0 0 0 0 0 0 0 
